ilp_joint_2/output/shedding_ilp.lp
Maximize
  8.7476417447329702e-04 Z_173_0_0 + 0.0427547672101779 Z_173_0_1
   + 0.065579199621315 Z_173_0_2 + 0.00197243446078493 Z_173_0_3
   + 9.0938177742683202e-04 Z_173_0_4
Subject To
 constraint1_1730: Z_173_0_0 + Z_173_0_1 + Z_173_0_2 + Z_173_0_3
   + Z_173_0_4 <= 1
 constraint2_1730: Z_173_0_0 <= 1
 constraint2_1731: Z_173_0_1 <= 1
 constraint2_1732: Z_173_0_2 <= 1
 constraint2_1733: Z_173_0_3 <= 1
 constraint2_1734: Z_173_0_4 <= 1
Bounds
Binaries
 Z_173_0_0 Z_173_0_1 Z_173_0_2 Z_173_0_3 Z_173_0_4
End
