ilp_joint_2/output/shedding_ilp.mps
NAME shedding_srl_ilp
* Max problem is converted into Min one
ROWS
 N  OBJ
 L  constraint1_1730
 L  constraint2_1730
 L  constraint2_1731
 L  constraint2_1732
 L  constraint2_1733
 L  constraint2_1734
COLUMNS
    MARKER    'MARKER'                 'INTORG'
    Z_173_0_0  OBJ       -8.7476417447329702e-04
    Z_173_0_0  constraint1_1730  1
    Z_173_0_0  constraint2_1730  1
    Z_173_0_1  OBJ       -4.2754767210177902e-02
    Z_173_0_1  constraint1_1730  1
    Z_173_0_1  constraint2_1731  1
    Z_173_0_2  OBJ       -6.5579199621314962e-02
    Z_173_0_2  constraint1_1730  1
    Z_173_0_2  constraint2_1732  1
    Z_173_0_3  OBJ       -1.9724344607849331e-03
    Z_173_0_3  constraint1_1730  1
    Z_173_0_3  constraint2_1733  1
    Z_173_0_4  OBJ       -9.0938177742683202e-04
    Z_173_0_4  constraint1_1730  1
    Z_173_0_4  constraint2_1734  1
    MARKER    'MARKER'                 'INTEND'
RHS
    RHS1      constraint1_1730  1
    RHS1      constraint2_1730  1
    RHS1      constraint2_1731  1
    RHS1      constraint2_1732  1
    RHS1      constraint2_1733  1
    RHS1      constraint2_1734  1
BOUNDS
 UP BND1      Z_173_0_0  1
 UP BND1      Z_173_0_1  1
 UP BND1      Z_173_0_2  1
 UP BND1      Z_173_0_3  1
 UP BND1      Z_173_0_4  1
ENDATA
