ilp_joint_2/output/shedding_ilp.sol
# Solution for model shedding_srl_ilp
# Objective value = 6.5579199621314962e-02
Z_173_0_0 0
Z_173_0_1 0
Z_173_0_2 1
Z_173_0_3 0
Z_173_0_4 0
